NAME: bip_50_2
TYPE: TSP
COMMENT: bip_50_2
DIMENSION: 50
EDGE_WEIGHT_TYPE: EUC_2D
NODE_COORD_SECTION
1 58 59
2 19 93
3 82 72
4 7 43
5 56 23
6 22 84
7 84 53
8 6 46
9 20 47
10 35 5
11 60 83
12 72 76
13 25 22
14 70 65
15 27 43
16 7 99
17 22 25
18 65 50
19 44 26
20 13 51
21 96 32
22 21 87
23 99 99
24 17 39
25 45 66
26 450 440
27 404 490
28 418 443
29 477 435
30 496 447
31 468 403
32 491 421
33 417 433
34 489 452
35 437 435
36 425 446
37 481 425
38 411 428
39 449 474
40 414 438
41 465 455
42 450 407
43 464 402
44 412 423
45 472 490
46 426 402
47 431 453
48 470 454
49 434 498
50 453 475
